nbNodes = 12;
nbVehi = 10;
nbServi = 5;

e = 
 [|    0,  411,  446,  479,  316,  422,  110,  268,   22,  445,  185,    0,
 |    0,   60,  274,  248,  451,  171,  425,  105,  385,   93,  471,    0,
 |    0,   65,  263,  277,  386,  155,   99,   19,  470,   57,  316,    0,
 |    0,  103,  361,  184,  327,   20,  328,  448,  433,  410,    4,    0,
 |    0,  444,  330,   26,  249,  308,  343,  374,  139,   37,  370,    0,
 |];

l = 
 [| 480, 469, 496, 524, 349, 454, 157, 298,  57, 487, 242, 480,
 | 480, 100, 325, 287, 489, 206, 478, 165, 423, 133, 510, 480,
 | 480, 115, 313, 333, 430, 210, 131,  72, 526, 107, 367, 480,
 | 480, 140, 419, 237, 374,  63, 370, 495, 485, 462,  51, 480,
 | 480, 488, 378,  67, 285, 352, 396, 411, 192,  89, 400, 480,
 |];

a = 
 [|  1,  1,  1,  1,  1,
 |  1,  1,  1,  1,  1,
 |  1,  1,  1,  1,  1,
 |  1,  1,  1,  1,  1,
 |  1,  1,  1,  1,  1,
 |  1,  1,  1,  1,  1,
 |  1,  1,  1,  1,  1,
 |  1,  1,  1,  1,  1,
 |  1,  1,  1,  1,  1,
 |  1,  1,  1,  1,  1,
 |];

p = array3d(1..nbNodes,1..nbVehi,1..nbServi,
[  0,  0,  0,  0,  0,	  0,  0,  0,  0,  0,	  0,  0,  0,  0,  0,	  0,  0,  0,  0,  0,	  0,  0,  0,  0,  0,	  0,  0,  0,  0,  0,	  0,  0,  0,  0,  0,	  0,  0,  0,  0,  0,	  0,  0,  0,  0,  0,	  0,  0,  0,  0,  0,	
 21,  7, 23,  9, 26,	 22, 11, 14, 27,  5,	 20, 13,  5, 12, 15,	 20, 14, 23, 15,  8,	 28, 20,  9, 11, 13,	 27, 22, 25, 29, 17,	 21, 21, 19, 17, 27,	 15,  9, 10, 24,  8,	 11, 16, 18, 11, 24,	  6, 26, 10, 24, 14,	
 14, 24, 29, 18,  5,	 14, 17, 25, 10, 16,	 14, 28,  7, 29, 17,	  7, 16, 23, 12, 13,	 27, 18, 24, 15, 24,	 20, 16, 23, 26, 13,	  7, 12,  7,  8, 27,	 10, 18, 14,  5, 25,	 25, 14, 25,  5, 15,	 13,  7, 29,  8, 14,	
 12,  5,  5,  8, 18,	 26, 24,  6, 19, 22,	 14, 23, 29, 19, 27,	 26, 24, 17, 10, 26,	 14,  7, 12,  9,  7,	 25, 19, 11, 24, 23,	 21,  8, 23, 21, 11,	 13, 17,  7, 15,  9,	 24, 26, 27, 25, 15,	 26, 21, 11, 15, 28,	
  7, 24,  8, 17,  6,	 12, 12, 20, 19,  8,	 13, 10, 11,  9, 28,	 17, 17, 17, 20, 29,	 23, 16, 26, 23, 12,	 11, 19,  5, 20,  7,	  6, 22, 26,  9, 11,	 27, 16, 20, 20,  5,	 23, 28, 12, 29,  7,	 12, 19, 22, 27, 11,	
 21, 20, 22, 19, 13,	  6, 28,  5,  7, 18,	  7, 10, 12,  5, 14,	 19,  5, 27,  9, 20,	  5,  5, 20, 14, 29,	 25, 22, 20, 17, 21,	 26, 10, 11, 21, 27,	 22, 24, 25, 24, 28,	 13, 28,  8, 20, 28,	 19,  9,  5, 17, 16,	
 22, 19, 16, 13, 28,	 17,  8, 20,  8, 22,	 11,  6, 29, 20, 24,	 26, 12, 19, 21,  6,	 17, 29, 29, 23, 22,	 29, 12, 26,  7, 26,	 14, 24, 15, 27,  9,	 14, 15, 14,  6, 20,	  6, 13, 23,  8,  5,	 18, 29, 14,  7, 21,	
 17, 21, 22, 18, 14,	 14, 17, 22, 13, 21,	 20, 22, 18,  6, 22,	 22, 15,  7,  9, 16,	 24, 10, 26, 17, 13,	 26,  7, 15, 12,  9,	  6, 24, 28, 25, 12,	 12, 10, 27,  6, 18,	 18, 22, 12,  8, 23,	 29, 26, 10,  8,  5,	
 23, 29, 12, 20, 17,	 23, 18, 21,  8, 26,	 26, 11, 20, 26,  6,	  5,  8, 11, 27, 12,	 26, 17,  6, 11, 21,	 26, 12, 19,  6, 18,	 21, 24, 17, 28, 16,	  6, 23,  5, 23, 26,	 28, 21,  9, 18, 17,	 11, 18, 22, 19, 17,	
  6, 18,  5,  7, 24,	 21, 28,  6, 12,  6,	 21, 28, 28,  9, 26,	 16, 12, 22, 16,  5,	 18, 14, 23, 23,  5,	 10,  6, 20,  5, 20,	  8,  6,  8, 10, 11,	 29, 26,  9,  8,  8,	 13, 24,  8, 13, 28,	 29, 24, 13, 23, 13,	
 13, 14, 22,  9,  9,	 24, 14, 10, 15, 16,	 27, 20, 18,  6, 25,	 24,  7, 23,  5, 10,	 28, 15,  5,  6, 23,	  5,  7, 18, 13, 26,	 26, 24, 10, 20, 28,	 14, 17, 14, 21, 27,	 26, 18, 19, 14, 21,	 14, 10, 24,  7, 10,	
  0,  0,  0,  0,  0,	  0,  0,  0,  0,  0,	  0,  0,  0,  0,  0,	  0,  0,  0,  0,  0,	  0,  0,  0,  0,  0,	  0,  0,  0,  0,  0,	  0,  0,  0,  0,  0,	  0,  0,  0,  0,  0,	  0,  0,  0,  0,  0,	  0,  0,  0,  0,  0,	
]);

rs = 
[|true,true,true,true,true,
 |true,false,false,false,false,
 |false,false,false,true,false,
 |false,false,false,false,true,
 |false,true,false,false,false,
 |false,true,false,false,false,
 |false,false,true,false,false,
 |false,false,false,true,false,
 |false,true,false,false,false,
 |true,false,false,false,false,
 |false,true,false,false,false,
 |true,true,true,true,true,
 |];

d=[|0, 23, 19, 7, 6, 12, 8, 23, 8, 21, 14, 0, 
|23, 0, 34, 20, 28, 34, 23, 22, 18, 26, 16, 23, 
|19, 34, 0, 26, 21, 24, 13, 42, 27, 41, 33, 19, 
|7, 20, 26, 0, 9, 14, 14, 16, 2, 14, 8, 7, 
|6, 28, 21, 9, 0, 6, 13, 24, 11, 22, 17, 6, 
|12, 34, 24, 14, 6, 0, 18, 28, 17, 24, 22, 12, 
|8, 23, 13, 14, 13, 18, 0, 29, 14, 29, 20, 8, 
|23, 22, 42, 16, 24, 28, 29, 0, 15, 5, 9, 23, 
|8, 18, 27, 2, 11, 17, 14, 15, 0, 14, 6, 8, 
|21, 26, 41, 14, 22, 24, 29, 5, 14, 0, 11, 21, 
|14, 16, 33, 8, 17, 22, 20, 9, 6, 11, 0, 14, 
|0, 23, 19, 7, 6, 12, 8, 23, 8, 21, 14, 0, 
|];

%coord=[ (0,0), (19,-13), (6,19), (-1,-7), (-6,1), (-12,3), (6,6), (-1,-23), (1,-8), (-6,-21), (3,-14), (0,0), ];

